; Start decls (1)
(declare-fun symbolic_0_float_ackermann!0 () (_ BitVec 32))
; End decls
; Start constraints (21)
(assert (fp.geq ((_ to_fp 11 53)
          roundNearestTiesToEven
          ((_ to_fp 8 24) symbolic_0_float_ackermann!0))
        ((_ to_fp 11 53) #x3ddb7cdfd9d7bdbb)))
(assert (fp.leq ((_ to_fp 8 24) symbolic_0_float_ackermann!0)
        ((_ to_fp 8 24) #x501502f9)))
(assert (not (fp.isNaN ((_ to_fp 8 24) symbolic_0_float_ackermann!0))))
(assert (not (fp.lt ((_ to_fp 8 24) symbolic_0_float_ackermann!0)
            ((_ to_fp 8 24) #x3f800000))))
(assert (not (fp.lt ((_ to_fp 8 24) symbolic_0_float_ackermann!0)
            ((_ to_fp 8 24) #x40000000))))
(assert (not (fp.gt ((_ to_fp 8 24) #x40800000)
            ((_ to_fp 8 24) symbolic_0_float_ackermann!0))))
(assert (not (fp.gt ((_ to_fp 8 24) #x41000000)
            ((_ to_fp 8 24) symbolic_0_float_ackermann!0))))
(assert (not (fp.gt ((_ to_fp 8 24) #x41800000)
            ((_ to_fp 8 24) symbolic_0_float_ackermann!0))))
(assert (not (fp.gt ((_ to_fp 8 24) #x42000000)
            ((_ to_fp 8 24) symbolic_0_float_ackermann!0))))
(assert (not (fp.gt ((_ to_fp 8 24) #x42800000)
            ((_ to_fp 8 24) symbolic_0_float_ackermann!0))))
(assert (not (fp.gt ((_ to_fp 8 24) #x43000000)
            ((_ to_fp 8 24) symbolic_0_float_ackermann!0))))
(assert (not (fp.gt ((_ to_fp 8 24) #x43800000)
            ((_ to_fp 8 24) symbolic_0_float_ackermann!0))))
(assert (not (fp.gt ((_ to_fp 8 24) #x44000000)
            ((_ to_fp 8 24) symbolic_0_float_ackermann!0))))
(assert (not (fp.gt ((_ to_fp 8 24) #x44800000)
            ((_ to_fp 8 24) symbolic_0_float_ackermann!0))))
(assert (not (fp.gt ((_ to_fp 8 24) #x45000000)
            ((_ to_fp 8 24) symbolic_0_float_ackermann!0))))
(assert (not (fp.gt ((_ to_fp 8 24) #x45800000)
            ((_ to_fp 8 24) symbolic_0_float_ackermann!0))))
(assert (not (fp.gt ((_ to_fp 8 24) #x46000000)
            ((_ to_fp 8 24) symbolic_0_float_ackermann!0))))
(assert (not (fp.gt ((_ to_fp 8 24) #x46800000)
            ((_ to_fp 8 24) symbolic_0_float_ackermann!0))))
(assert (not (fp.gt ((_ to_fp 8 24) #x47000000)
            ((_ to_fp 8 24) symbolic_0_float_ackermann!0))))
(assert (not (fp.gt ((_ to_fp 8 24) #x47800000)
            ((_ to_fp 8 24) symbolic_0_float_ackermann!0))))
(assert (not (fp.gt ((_ to_fp 8 24) #x48000000)
            ((_ to_fp 8 24) symbolic_0_float_ackermann!0))))
; End constraints
(check-sat)
(exit)
